4225
4210
4228
4219
4176
4233
4225
4168
4199
4195
4246
4178
4195
4281
4193
4273
4178
4189
4208
4184
4209
4269
4168
4189
4215
4179
4173
4167
4234
4218
4245
4218
4267
4202
4214
4216
4227
4130
4253
4224
4258
4292
4306
4121
4233
4266
4250
4224
4222
4205
4186
4321
4314
4232
4252
4222
4281
4235
4280
4240
4295
4280
4185
4223
4188
4183
4213
4258
4239
4160
4296
4144
4214
4211
4313
4307
4237
4272
4302
4218
4111
4237
4247
4262
4266
4229
4202
4219
4196
4265
4208
4227
4308
4270
4224
4230
4263
4235
4268
4293
